%chk=geometry.chk
%mem=1GB
%nprocshared=1

#P B3LYP/STO-3G NoSymm
#P TD=(singlets,nstates=1) IOp(6/8=3) IOp(9/40=5)

TitleMe

0 1
 C                  0.72599764   -1.17622359   -0.00284968
 C                  2.12115764   -1.17622359   -0.00284968
 C                  2.81869564    0.03152741   -0.00284968
 C                  2.12104164    1.24003641   -0.00404868
 C                  0.72621664    1.23995841   -0.00452768
 C                  0.02861564    0.03175241   -0.00353168
 H                  0.17623864   -2.12854059   -0.00239968
 H                  2.67066564   -2.12873659   -0.00153468
 H                  2.67124164    2.19217941   -0.00410768
 H                  0.17609464    2.19223941   -0.00548068
 H                 -1.07098836    0.03193541   -0.00371168
 C                  4.35869538    0.03163944   -0.00196182
 H                  4.71594233    0.04405522   -1.01048573
 F                  4.80824061    1.12604337    0.64818366
 Cl                 4.94499941   -1.41543325    0.81033628



 



